NAME : tsp_411_sol.txt
COMMENT : OR-Tools Guided Local Search
TYPE : TOUR
DIMENSION : 171
COST : 10823
STATUS : ROUTING_SUCCESS
GAP : 0.00% (Reference Solution)
TOUR_SECTION
1
35
58
128
53
81
97
98
18
88
62
114
164
160
84
5
66
32
79
102
95
46
125
26
37
140
96
73
91
69
141
16
29
71
117
131
133
67
170
115
147
38
162
15
34
77
126
156
137
45
43
87
2
119
129
110
54
48
130
151
51
55
59
113
139
74
153
50
60
9
127
134
52
25
33
41
166
90
106
75
107
168
82
30
8
12
101
17
165
10
121
122
27
80
85
167
116
7
4
6
94
158
148
89
36
23
124
169
144
11
155
83
56
93
3
70
152
21
100
86
157
13
103
123
159
65
146
64
22
19
40
31
61
161
132
14
142
111
109
99
78
112
143
28
150
47
39
76
42
72
118
163
135
49
92
104
57
68
24
105
154
108
145
171
138
63
44
136
149
120
20
-1
